DIMENSION :18
NODE_COORD_SECTION
1 54.678330338657645 -38.244782810957176
2 -21.74810602383046 17.852755776364276
3 77.91381634391709 -58.83383750379352
4 -87.90328281186295 20.65031107847392
5 73.093698148718 -97.44525564045878
6 -11.775911953585933 -90.77081463948349
7 7.9681695753036195 24.088132181227934
8 51.84375435981045 52.22231706755872
9 96.93686151420732 -51.93609617774659
10 -91.60518117384365 -33.40209845886804
11 64.31883120934424 82.90342161309283
12 -76.54364444812876 -33.03076780963184
13 -57.38199990899682 68.04750382576253
14 -42.81951907581843 -82.79803647299764
15 93.36339506913455 0.710634304356276
16 51.78421469677704 83.7633498616988
17 -29.669883151031428 -92.7608946499995
18 -11.511866551493227 64.6721103977203
EOF
